19615
19845
20015
20099
20171
20212
20252
20279
20291
20301
20312
20321
20324
20327
20327
20327
20327
20327
20327
20327
20327
20327
20327
20327
20327
20327
20327
20327
20327
20327
20327
20327
20327
20327
20327
20327
20327
20327
20327
20327
20327
20327
20327
20327
20327
20327
20327
20327
20327
20328
20328
20328
20328
20329
20329
20330
20331
20332
20334
20336
20337
20338
20339
20340
20341
20344
20348
20353
20359
20362
20366
20372
20376
20380
20386
20389
20398
20404
20409
20413
20419
20423
20433
20440
20440
20440
20440
20440
20440
20440
20440
20441
20441
20441
20442
20442
20442
20443
20444
